10	5
0	6	5	2	3	4	1	10
1	1	11
2	1	6
3	1	7
4	1	7
5	1	11
6	1	8
7	1	6
8	1	9
9	1	11
10	1	11
11	0
0	0	0	0	0	0	0
1	10	2	0	0	0	1
2	6	1	3	0	0	0
3	8	1	5	2	0	4
4	8	4	1	3	0	0
5	8	0	5	0	0	0
6	3	1	3	0	0	1
7	6	2	0	0	0	1
8	1	5	3	0	5	0
9	5	0	0	4	5	0
10	5	4	0	2	0	3
11	0	0	0	0	0	0
8	8	6	2	7
